\ENCODING=ISO-8859-1
\Problem name: IloCplex

Minimize
 obj1: 1000000 y0 + 1000000 y1 + 1000000 y2 + 1000000 y3 + 1000000 y4
       + 1000000 y5 + 1000000 y6 + 1000000 y7 + 1000000 y8 + 1000000 y9
       + 1000000 y10 + 1000000 y11 + 1000000 y12 + 1000000 y13 + 1000000 y14
       + 1000000 y15 + 1000000 y16 + 1000000 y17 + 1000000 y18 + 1000000 y19
       + 1000000 y20 + 1000000 y21 + 1000000 y22 + 1000000 y23 + 1000000 y24
       + 1000000 y25 + 1000000 y26 + 1000000 y27 + 1000000 y28 + 1000000 y29
       + 1000000 y30 + 1000000 y31 + 1000000 y32 + 1000000 y33 + 1000000 y34
       + 1000000 y35 + 1000000 y36 + 1000000 y37 + 1000000 y38 + 1000000 y39
       + 1000000 y40 + 1000000 y41 + 1000000 y42 + 1000000 y43 + 1000000 y44
       + 1000000 y45 + 1000000 y46 + 1000000 y47 + 1000000 y48 + 1000000 y49
       + y50 + y51 + y52 + y53 + y54 + y55 + y56 + y57 + y58 + y59 + y60 + y61
       + y62 + y63 + y64 + y65 + y66 + y67 + y68 + y69 + y70 + y71 + y72 + y73
       + y74 + y75 + y76 + y77 + y78 + y79 + y80 + y81 + y82 + y83 + y84 + y85
       + y86 + y87 + y88 + y89 + y90 + y91 + y92 + y93 + y94 + y95 + y96 + y97
       + y98 + y99 + y100 + y101 + y102 + y103 + y104 + y105 + y106 + y107
       + y108 + y109 + y110 + y111 + y112 + y113 + y114 + y115 + y116 + y117
       + y118 + y119 + y120 + y121 + y122 + y123 + y124 + y125 + y126 + y127
       + y128 + y129 + y130 + y131 + y132 + y133 + y134 + y135 + y136 + y137
       + y138 + y139 + y140 + y141 + y142 + y143 + y144 + y145 + y146 + y147
       + y148 + y149 + y150 + y151 + y152 + y153 + y154 + y155 + y156 + y157
       + y158 + y159 + y160 + y161 + y162 + y163 + y164 + y165 + y166 + y167
       + y168 + y169 + y170 + y171 + y172 + y173 + y174 + y175 + y176 + y177
       + y178 + y179 + y180 + y181 + y182 + y183 + y184 + y185 + y186 + y187
       + y188
Subject To
 c1:  y0 + y143  = 1
 c2:  y1 + y140  = 1
 c3:  y2 + y142  = 1
 c4:  y3 + y141  = 1
 c5:  y4 + y152 + y165  = 1
 c6:  y5 + y151  = 1
 c7:  y6 + y144 + y150  = 1
 c8:  y7 + y135 + y149  = 1
 c9:  y8 + y132 + y134  = 1
 c10: y9 + y128 + y131  = 1
 c11: y10 + y125 + y127 + y148  = 1
 c12: y11 + y121 + y124 + y184  = 1
 c13: y12 + y118 + y120 + y145  = 1
 c14: y13 + y116 + y117 + y119 + y158 + y187  = 1
 c15: y14 + y114 + y115 + y167  = 1
 c16: y15 + y111 + y113  = 1
 c17: y16 + y109 + y112 + y139 + y176  = 1
 c18: y17 + y107 + y108 + y123 + y126 + y129 + y155 + y162  = 1
 c19: y18 + y105 + y106 + y136 + y146 + y163  = 1
 c20: y19 + y103 + y104 + y159 + y170 + y186  = 1
 c21: y20 + y101 + y102 + y160 + y171 + y175  = 1
 c22: y21 + y99 + y100 + y173 + y174  = 1
 c23: y22 + y92 + y98 + y100 + y183 + y188  = 1
 c24: y23 + y92 + y98 + y99 + y164 + y171 + y172 + y179  = 1
 c25: y24 + y89 + y90 + y101 + y161 + y169 + y170 + y182  = 1
 c26: y25 + y85 + y86 + y88 + y89 + y102 + y153 + y154 + y168 + y177  = 1
 c27: y26 + y80 + y85 + y91 + y97 + y104 + y180  = 1
 c28: y27 + y80 + y84 + y86 + y93 + y103 + y166 + y181  = 1
 c29: y28 + y78 + y79 + y84 + y91 + y95 + y111 + y137 + y164  = 1
 c30: y29 + y78 + y79 + y82 + y110 + y113 + y122 + y137 + y154 + y162 + y176
       = 1
 c31: y30 + y77 + y78 + y90 + y94 + y109 + y147 + y161 + y166 + y167 + y168
       = 1
 c32: y31 + y72 + y75 + y76 + y83 + y105 + y138 + y139 + y147 + y177 + y178
      + y180 + y181 + y183  = 1
 c33: y32 + y72 + y74 + y75 + y81 + y82 + y87 + y106 + y133 + y147 + y153
      + y156 + y178 + y179 + y180 + y181 + y182 + y185  = 1
 c34: y33 + y69 + y71 + y72 + y87 + y93 + y97 + y110 + y114 + y123 + y168
      + y185 + y187  = 1
 c35: y34 + y69 + y70 + y71 + y75 + y76 + y94 + y95 + y122 + y129 + y130 + y156
      + y157 + y158 + y188  = 1
 c36: y35 + y64 + y68 + y69 + y74 + y81 + y83 + y96 + y97 + y115 + y153 + y157
      + y166 + y172 + y174 + y175  = 1
 c37: y36 + y64 + y65 + y66 + y67 + y73 + y76 + y96 + y117 + y120 + y169 + y173
       = 1
 c38: y37 + y60 + y62 + y63 + y64 + y68 + y70 + y73 + y77 + y88 + y91 + y93
      + y118 + y159 + y160 + y169 + y172 + y173 + y177 + y178 + y182 + y184
       = 1
 c39: y38 + y59 + y60 + y62 + y63 + y66 + y81 + y95 + y107 + y121 + y130 + y133
      + y138 + y185 + y186 + y188  = 1
 c40: y39 + y59 + y60 + y61 + y65 + y67 + y77 + y79 + y82 + y87 + y94 + y112
      + y138 + y154 + y156 + y157 + y160 + y161 + y163 + y179  = 1
 c41: y40 + y55 + y59 + y62 + y65 + y68 + y71 + y96 + y108 + y124 + y130 + y133
      + y145 + y146 + y155 + y156 + y164 + y175 + y183 + y186  = 1
 c42: y41 + y51 + y52 + y53 + y54 + y55 + y56 + y57 + y58 + y61 + y63 + y66
      + y67 + y68 + y80 + y88 + y119 + y122 + y133 + y136 + y138 + y157 + y159
      + y174 + y185  = 1
 c43: y42 + y50 + y51 + y52 + y54 + y55 + y56 + y57 + y58 + y61 + y63 + y65
      + y70 + y73 + y74 + y76 + y83 + y87 + y90 + y110 + y126 + y130 + y136
      + y137 + y155 + y163 + y178  = 1
 c44: y43 + y50 + y51 + y52 + y53 + y56 + y57 + y58 + y60 + y61 + y62 + y67
      + y69 + y73 + y82 + y83 + y84 + y85 + y94 + y95 + y96 + y110 + y128  = 1
 c45: y44 + y50 + y51 + y52 + y53 + y54 + y56 + y57 + y58 + y59 + y67 + y71
      + y73 + y74 + y88 + y108 + y125  = 1
 c46: y45 + y50 + y51 + y52 + y53 + y54 + y55 + y57 + y58 + y61 + y62 + y66
      + y70 + y74 + y77 + y79 + y89 + y96 + y112 + y116 + y126 + y131 + y147
      + y148 + y149  = 1
 c47: y46 + y50 + y51 + y52 + y53 + y54 + y55 + y56 + y58 + y61 + y64 + y71
      + y75 + y81 + y83 + y84 + y107 + y116 + y122 + y123 + y132  = 1
 c48: y47 + y50 + y51 + y52 + y53 + y54 + y55 + y56 + y57 + y60 + y64 + y70
      + y72 + y90 + y106 + y110 + y119 + y127 + y134 + y135 + y150 + y165  = 1
 c49: y48 + y50 + y51 + y53 + y54 + y55 + y56 + y57 + y58 + y60 + y65 + y66
      + y68 + y70 + y73 + y77 + y81 + y86 + y93 + y105 + y116 + y122 + y127
      + y137 + y144  = 1
 c50: y49 + y50 + y52 + y53 + y54 + y55 + y56 + y57 + y58 + y60 + y63 + y65
      + y67 + y69 + y74 + y75 + y77 + y86 + y91 + y92 + y106 + y126 + y135
      + y157 + y161 + y166 + y172 + y177 + y179  = 1
End
